9
2147483647 55 2 66 71 54 66 62 37 
55 2147483647 65 57 28 82 67 41 59 
2 65 2147483647 96 61 82 68 88 60 
66 57 96 2147483647 94 6 7 84 39 
71 28 61 94 2147483647 95 29 91 11 
54 82 82 6 95 2147483647 58 26 3 
66 67 68 7 29 58 2147483647 98 48 
62 41 88 84 91 26 98 2147483647 95 
37 59 60 39 11 3 48 95 2147483647 
